data/solutions/recovery/degenerate/intermediate/binding/degenerate_intermediate_instance37/71.sol
Elapsed time: 0.04
Upper bound: 207856.0
Planning weighted value: 9485090516.0
C[0]=207856.0
C[1]=207219.0
C[2]=201897.0
C[3]=192953.0
C[4]=192118.0
C[5]=190264.0
C[6]=186112.0
C[7]=185851.0
C[8]=136771.0
C[9]=133701.0
C[10]=131955.0
C[11]=125066.0
C[12]=109466.0
C[13]=88779.0
C[14]=0.0
C[15]=0.0
y[0]=3
y[1]=0
y[2]=11
y[3]=5
y[4]=4
y[5]=4
y[6]=6
y[7]=7
y[8]=11
y[9]=11
y[10]=12
y[11]=12
y[12]=5
y[13]=0
y[14]=8
y[15]=10
y[16]=2
y[17]=13
y[18]=4
y[19]=7
y[20]=11
y[21]=11
y[22]=9
y[23]=2
y[24]=8
y[25]=13
y[26]=2
y[27]=11
y[28]=9
y[29]=6
y[30]=2
y[31]=4
y[32]=11
y[33]=4
y[34]=0
y[35]=5
y[36]=7
y[37]=4
y[38]=11
y[39]=12
y[40]=9
y[41]=11
y[42]=2
y[43]=10
y[44]=13
y[45]=12
y[46]=1
y[47]=7
y[48]=10
y[49]=6
y[50]=7
y[51]=3
y[52]=8
y[53]=5
y[54]=6
y[55]=1
y[56]=12
y[57]=0
y[58]=5
y[59]=5
y[60]=2
y[61]=6
y[62]=3
y[63]=7
y[64]=1
