data/solutions/recovery/degenerate/intermediate/binding/degenerate_intermediate_instance37/71.log

Log started (V12.6.3.0) Sun Apr 22 12:33:36 2018

New value for default parallel thread count: 1

Problem '/tmp/tmpLzeUni.pyomo.lp' read.
Read time = 0.02 sec. (0.77 ticks)

Problem name         : /tmp/tmpLzeUni.pyomo.lp
Objective sense      : Minimize
Variables            :    1058  [Nneg: 1,  Binary: 1040,  General Integer: 17]
Objective nonzeros   :       1
Linear constraints   :     165  [Less: 81,  Equal: 84]
  Nonzeros           :   54877
  RHS nonzeros       :      66

Variables            : Min LB: 0.000000         Max UB: 1.000000       
Objective nonzeros   : Min   : 1.000000         Max   : 1.000000       
Linear constraints   :
  Nonzeros           : Min   : 1.000000         Max   : 128311.0       
  RHS nonzeros       : Min   : 1.000000         Max   : 1.000000       
Tried aggregator 2 times.
MIP Presolve eliminated 126 rows and 889 columns.
Aggregator did 14 substitutions.
Reduced MIP has 25 rows, 155 columns, and 322 nonzeros.
Reduced MIP has 154 binaries, 1 generals, 0 SOSs, and 0 indicators.
Presolve time = 0.00 sec. (3.83 ticks)
Found incumbent of value 821905.000000 after 0.00 sec. (5.21 ticks)
Probing time = 0.00 sec. (0.21 ticks)
Cover probing fixed 0 vars, tightened 3 bounds.
Tried aggregator 1 time.
Reduced MIP has 25 rows, 155 columns, and 322 nonzeros.
Reduced MIP has 154 binaries, 1 generals, 0 SOSs, and 0 indicators.
Presolve time = 0.00 sec. (0.25 ticks)
Probing time = 0.00 sec. (0.20 ticks)
Clique table members: 11.
MIP emphasis: balance optimality and feasibility.
MIP search method: dynamic search.
Parallel mode: none, using 1 thread.
Root relaxation solution time = 0.00 sec. (0.18 ticks)

        Nodes                                         Cuts/
   Node  Left     Objective  IInf  Best Integer    Best Bound    ItCnt     Gap

*     0+    0                       821905.0000   192953.0000            76.52%
      0     0   192953.0000    16   821905.0000   192953.0000       32   76.52%
*     0+    0                       252851.0000   192953.0000            23.69%
      0     0   192953.0000    10   252851.0000       Cuts: 7       44   23.69%
*     0+    0                       245962.0000   192953.0000            21.55%
      0     0   192953.0000     6   245962.0000      Cuts: 15       55   21.55%
*     0+    0                       230345.0000   192953.0000            16.23%
      0     0   194145.0514    23   230345.0000       Cuts: 6       80   15.72%
*     0+    0                       214432.0000   194145.0514             9.46%
*     0+    0                       207856.0000   194145.0514             6.60%
      0     0        cutoff         207856.0000   194145.0514       91    6.60%
Elapsed time = 0.01 sec. (8.63 ticks, tree = 0.01 MB, solutions = 5)

Mixed integer rounding cuts applied:  15
Gomory fractional cuts applied:  4

Root node processing (before b&c):
  Real time             =    0.01 sec. (8.69 ticks)
Sequential b&c:
  Real time             =    0.00 sec. (0.01 ticks)
                          ------------
Total (root+branch&cut) =    0.01 sec. (8.70 ticks)

Solution pool: 5 solutions saved.

MIP - Integer optimal solution:  Objective =  2.0785600000e+05
Solution time =    0.01 sec.  Iterations = 91  Nodes = 0
Deterministic time = 8.70 ticks  (908.92 ticks/sec)


Incumbent solution written to file '/tmp/tmpA8k89_.cplex.sol'.
